p cnf 74 1490
-32 -37 0
-47 -54 0
-38 -44 -63 0
-37 -44 0
-2 -34 0
-6 -40 0
-3 -38 0
-2 -32 -38 0
-2 -38 -44 0
-39 -46 0
-6 -39 -45 0
-6 -52 0
-38 -64 0
-56 -60 0
-44 -47 -55 0
-38 -48 0
-38 -47 -53 0
-5 -38 -75 0
-31 -38 -56 0
-38 -44 -47 0
-32 -38 -47 0
-32 -47 -55 0
-5 -34 -75 0
-60 -63 0
-5 -34 -63 0
-4 -34 -63 0
-61 -63 0
-63 -71 0
-47 -56 -70 0
-47 -51 -56 0
-39 -47 -86 0
-35 -47 -56 0
-47 -56 -59 0
-44 -47 -56 0
-44 -47 -63 0
-4 -34 -75 0
-1 -6 0
-41 -60 0
-39 -47 -83 0
-34 -39 -47 0
-34 -36 -47 0
-34 -47 -68 0
-6 -24 -45 0
-6 -24 -34 -47 0
-6 -12 -45 0
-47 -62 -86 0
-12 -23 -47 -86 0
-30 -47 -86 0
-41 -44 -47 0
-12 -28 -47 -86 0
-47 -86 -88 0
-12 -29 -47 -86 0
-12 -22 -47 -86 0
-12 -21 -47 -86 0
-47 -85 -86 0
-44 -47 -67 0
-12 -19 -47 -86 0
-44 -47 -66 0
-44 -47 -65 0
-16 -28 -47 -86 0
-11 -28 -47 -86 0
-10 -45 -47 -86 0
-9 -23 -47 -60 0
-9 -28 -47 -86 0
-7 -29 -47 -60 0
-7 -28 -47 -86 0
-6 -19 -47 -86 0
-46 -68 0
-6 -45 -68 0
-18 -52 0
-55 -83 0
-55 -60 -67 0
-55 -86 0
-2 -86 0
-5 -75 -86 0
-38 -56 -86 0
-38 -56 -83 0
-38 -67 0
-38 -66 0
-5 -56 -75 0
-2 -5 -56 0
-37 -42 0
-37 -69 0
-31 -37 0
-37 -48 -54 0
-5 -37 -54 0
-34 -37 0
-5 -37 -56 0
-37 -48 -61 0
-37 -48 -71 0
-3 -37 -71 0
-2 -54 0
-3 -37 -61 0
-37 -61 -64 0
-37 -64 -71 0
-37 -67 -71 0
-37 -61 -67 0
-37 -70 0
-37 -51 -56 0
-35 -37 0
-37 -48 -59 0
-4 -37 -56 0
-4 -56 -63 0
-4 -59 -75 0
-4 -56 -75 0
-2 -32 -55 0
-2 -44 -55 0
-2 -31 -55 0
-2 -4 -56 0
-2 -56 -61 0
-2 -56 -71 0
-2 -55 -70 0
-2 -48 -55 0
-2 -51 -55 0
-2 -35 -55 0
-2 -42 -55 0
-2 -55 -69 0
-2 -53 -55 0
-3 -37 -55 0
-37 -84 0
-37 -72 0
-37 -87 0
-37 -73 0
-2 -56 -59 0
-47 -56 -57 0
-47 -49 -56 0
-47 -55 -73 0
-2 -3 -55 0
-51 -63 -84 0
-18 -40 0
-1 -18 0
-18 -45 0
-6 -45 -56 0
-6 -24 -46 0
-46 -56 0
-46 -55 0
-3 -55 -60 0
-6 -45 -55 0
-55 -60 -64 0
-48 -55 -60 0
-49 -54 -63 0
-55 -60 -66 0
-31 -55 -60 0
-54 -55 -60 0
-38 -54 -60 0
-31 -38 -54 0
-38 -53 -86 0
-38 -41 0
-38 -54 -86 0
-38 -54 -83 0
-34 -38 -56 0
-34 -38 -54 0
-38 -65 0
-6 -38 -45 -54 0
-38 -46 -54 0
-38 -63 -87 0
-32 -38 -63 0
-38 -63 -70 0
-38 -51 -63 0
-35 -38 -63 0
-38 -42 -63 0
-38 -63 -69 0
-38 -63 -84 0
-38 -63 -72 0
-38 -63 -73 0
-49 -56 -63 0
-38 -49 -63 0
-49 -59 -63 0
-5 -55 -63 0
-5 -75 -78 0
-5 -37 -43 0
-2 -5 -78 0
-4 -37 -58 0
-5 -75 -79 0
-5 -63 -79 0
-5 -57 -75 0
-4 -37 -77 0
-5 -37 -80 0
-4 -37 -57 0
-4 -41 -63 0
-4 -37 -67 0
-4 -63 -72 0
-4 -47 -67 0
-4 -63 -87 0
-5 -43 -63 0
-4 -63 -80 0
-4 -35 -75 0
-2 -4 -77 0
-4 -63 -70 0
-4 -35 -63 0
-4 -58 -63 0
-4 -42 -63 0
-4 -63 -66 0
-4 -57 -63 0
-47 -63 -73 0
-4 -65 -75 0
-4 -63 -65 0
-47 -59 -63 0
-47 -63 -84 0
-3 -37 -53 0
-37 -48 -53 0
-2 -37 -53 0
-2 -5 -79 0
-4 -47 -66 0
-47 -51 -66 0
-2 -5 -58 0
-2 -5 -77 0
-5 -57 -63 0
-2 -5 -67 0
-5 -37 -67 0
-5 -63 -67 0
-5 -67 -75 0
-47 -61 -67 0
-47 -67 -71 0
-47 -59 -67 0
-5 -47 -67 0
-6 -41 -45 0
-41 -46 0
-12 -22 -46 0
-18 -22 -46 0
-30 -46 -60 0
-6 -19 -46 -54 0
-6 -19 -36 -46 0
-6 -19 -46 -62 0
-12 -19 -23 -46 0
-6 -19 -46 -88 0
-6 -19 -46 -86 0
-18 -19 -46 -60 0
-18 -24 -46 0
-10 -22 -46 0
-7 -16 -45 -46 0
-7 -40 -46 -54 0
-7 -36 -40 -46 0
-7 -40 -46 -62 0
-7 -40 -46 -88 0
-7 -40 -46 -86 0
-10 -46 -52 0
-12 -40 -46 0
-4 -54 -75 0
-4 -75 -86 0
-7 -36 -45 -46 0
-7 -45 -46 -54 0
-7 -45 -46 -62 0
-7 -45 -46 -88 0
-7 -45 -46 -85 0
-7 -45 -46 -67 0
-7 -45 -46 -66 0
-7 -45 -46 -65 0
-7 -11 -45 -46 0
-7 -23 -45 -46 -86 0
-7 -46 -52 -86 0
-12 -46 -52 0
-1 -10 -46 0
-12 -24 -46 0
-12 -45 -46 0
-12 -19 -46 -54 0
-12 -19 -36 -46 0
-12 -19 -46 -62 0
-12 -19 -46 -88 0
-12 -19 -29 -46 0
-12 -19 -46 -86 0
-30 -46 -62 0
-12 -23 -30 -46 0
-30 -46 -54 0
-30 -36 -46 0
-30 -46 -86 0
-4 -44 -75 0
-4 -75 -84 0
-4 -71 -75 0
-4 -75 -87 0
-4 -57 -75 0
-4 -70 -75 0
-4 -67 -75 0
-4 -42 -75 0
-4 -75 -78 0
-4 -73 -75 0
-4 -61 -75 0
-4 -75 -77 0
-4 -75 -79 0
-4 -43 -75 0
-4 -58 -75 0
-4 -75 -83 0
-4 -41 -75 0
-4 -66 -75 0
-4 -72 -75 0
-4 -75 -80 0
-4 -60 -75 0
-2 -35 -75 0
-5 -75 -84 0
-5 -60 -75 0
-2 -44 -75 0
-2 -60 0
-2 -59 -67 0
-2 -61 -75 0
-2 -41 -71 0
-2 -41 -84 0
-2 -49 -56 0
-2 -56 -72 0
-2 -75 -87 0
-2 -57 -75 0
-2 -42 -75 0
-2 -73 -75 0
-51 -56 -63 0
-2 -70 -75 0
-2 -83 0
-2 -63 -72 0
-2 -51 -67 0
-2 -41 -51 0
-51 -63 -65 0
-2 -49 -67 0
-2 -49 -66 0
-2 -41 -49 0
-2 -49 -65 0
-47 -57 -63 0
-2 -63 -70 0
-35 -51 -63 0
-42 -51 -63 0
-2 -63 -87 0
-51 -63 -66 0
-51 -59 -63 0
-51 -57 -63 0
-44 -51 -63 0
-51 -63 -73 0
-51 -63 -67 0
-34 -51 -63 0
-51 -55 -63 0
-49 -55 -63 0
-34 -47 -56 0
-3 -47 -55 0
-47 -48 -55 0
-47 -53 -55 0
-31 -47 -55 0
-42 -47 -55 0
-47 -55 -69 0
-47 -55 -72 0
-47 -55 -87 0
-2 -59 -78 0
-2 -43 -59 0
-2 -58 -59 0
-2 -59 -79 0
-2 -59 -77 0
-2 -59 -80 0
-47 -55 -59 0
-5 -47 -55 0
-4 -37 -55 0
-2 -4 -55 0
-4 -55 -75 0
-5 -54 -75 0
-5 -55 -75 0
-5 -44 -75 0
-5 -61 -75 0
-5 -70 -75 0
-5 -35 -75 0
-5 -71 -75 0
-5 -41 -75 0
-5 -75 -83 0
-6 -30 -36 -45 0
-6 -30 -45 -54 0
-6 -19 -45 -54 0
-6 -10 -45 0
-6 -7 -45 -54 0
-6 -22 -45 0
-6 -7 -28 -45 0
-6 -7 -29 -45 0
-6 -7 -21 -45 0
-9 -45 -47 -60 0
-6 -7 -17 -45 0
-6 -16 -45 -47 0
-11 -23 -47 -86 0
-17 -23 -47 -86 0
-36 -46 -47 0
-17 -28 -47 -60 0
-11 -29 -47 -60 0
-6 -11 -45 -47 0
-6 -17 -45 -47 0
-17 -45 -47 -86 0
-16 -45 -47 -86 0
-11 -40 -47 -86 0
-34 -47 -65 0
-46 -47 -65 0
-47 -60 -67 0
-47 -60 -66 0
-9 -40 -47 -86 0
-47 -61 -66 0
-47 -66 -71 0
-47 -59 -66 0
-35 -47 -66 0
-42 -47 -67 0
-47 -67 -84 0
-47 -67 -73 0
-47 -57 -67 0
-47 -49 -67 0
-34 -47 -67 0
-46 -63 -87 0
-47 -63 -72 0
-46 -63 -83 0
-46 -63 -86 0
-47 -63 -86 0
-41 -47 -83 0
-47 -63 -87 0
-47 -67 -70 0
-35 -47 -63 0
-49 -63 -66 0
-47 -66 -70 0
-42 -47 -63 0
-47 -56 -83 0
-47 -63 -83 0
-41 -49 -63 0
-47 -63 -70 0
-49 -63 -65 0
-12 -34 -40 -47 0
-34 -47 -63 0
-41 -51 -63 0
-9 -40 -46 -63 0
-17 -28 -46 -63 0
-7 -17 -40 -46 0
-9 -46 -52 -63 0
-17 -46 -52 -63 0
-11 -24 -46 -47 0
-46 -47 -85 0
-11 -22 -46 -47 0
-11 -23 -46 -63 0
-16 -40 -46 -63 0
-11 -40 -46 -63 0
-46 -47 -88 0
-16 -29 -46 -63 0
-16 -21 -46 -63 0
-16 -46 -52 -63 0
-11 -21 -46 -63 0
-11 -29 -46 -63 0
-11 -46 -52 -63 0
-46 -47 -62 0
-1 -17 -46 -47 0
-9 -45 -46 -63 0
-9 -24 -46 -63 0
-9 -29 -46 -47 0
-6 -22 -46 0
-9 -21 -46 -47 0
-10 -23 -46 -63 0
-12 -28 -46 -63 0
-12 -21 -46 -63 0
-46 -63 -85 0
-16 -28 -46 -63 0
-16 -24 -46 -63 0
-46 -63 -88 0
-30 -46 -88 0
-10 -24 -46 0
-7 -24 -36 -46 0
-2 -72 -75 0
-2 -72 -78 0
-2 -43 -87 0
-2 -58 -87 0
-2 -79 -87 0
-2 -70 -77 0
-2 -44 -80 0
-2 -16 -45 -46 0
-2 -46 -62 0
-7 -22 -36 -46 0
-7 -11 -46 -52 0
-7 -46 -52 -54 0
-1 -7 -46 -60 0
-1 -12 -46 0
-7 -19 -46 -86 0
-10 -19 -46 -54 0
-10 -40 -46 0
-10 -45 -46 0
-7 -24 -46 -54 0
-7 -24 -46 -86 0
-7 -22 -46 -86 0
-7 -9 -45 -46 0
-7 -29 -45 -46 -60 0
-7 -28 -45 -46 -86 0
-7 -21 -45 -46 -86 0
-7 -17 -45 -46 0
-1 -7 -46 -86 0
-11 -34 -45 -47 0
-9 -45 -47 -86 0
-34 -47 -66 0
-47 -66 -86 0
-47 -67 -86 0
-16 -34 -47 -52 0
-16 -46 -47 -52 0
-17 -40 -46 -47 0
-16 -24 -34 -47 0
-16 -24 -46 -47 0
-16 -23 -46 -47 0
-16 -29 -34 -47 0
-16 -22 -34 -47 0
-16 -22 -46 -47 0
-17 -29 -46 -47 0
-17 -34 -47 -52 0
-17 -46 -47 -52 0
-9 -46 -47 -52 0
-9 -24 -34 -47 0
-9 -24 -46 -47 0
-9 -22 -46 -47 0
-9 -19 -47 -86 0
-1 -11 -47 -60 0
-1 -11 -47 -86 0
-16 -21 -34 -47 0
-16 -21 -46 -47 0
-11 -21 -46 -47 0
-10 -21 -34 -47 0
-10 -21 -46 -47 0
-10 -23 -46 -47 0
-10 -29 -34 -47 0
-11 -29 -46 -47 0
-16 -29 -46 -47 0
-10 -29 -46 -47 0
-10 -28 -46 -47 0
-18 -23 -34 -47 0
-7 -23 -47 -86 0
-18 -23 -47 -86 0
-11 -45 -46 -47 0
-11 -46 -47 -52 0
-17 -47 -52 -60 0
-36 -47 -86 0
-47 -68 -86 0
-10 -19 -46 -86 0
-18 -19 -46 -62 0
-18 -19 -46 -88 0
-18 -19 -46 -54 0
-18 -19 -46 -86 0
-7 -29 -45 -46 -86 0
-7 -21 -47 -86 0
-7 -29 -47 -86 0
-18 -21 -34 -47 0
-18 -28 -46 -47 0
-18 -21 -46 -47 0
-18 -29 -47 -86 0
-9 -23 -47 -86 0
-17 -21 -34 -47 0
-17 -28 -46 -47 0
-17 -21 -46 -47 0
-17 -29 -34 -47 0
-6 -22 -47 -60 0
-6 -24 -47 -86 0
-16 -24 -47 -86 0
-11 -47 -52 -86 0
-10 -47 -52 -86 0
-9 -47 -52 -86 0
-5 -42 -75 0
-30 -46 -85 0
-30 -46 -66 0
-30 -46 -65 0
-5 -16 -45 -46 -75 0
-16 -30 -45 -46 0
-30 -46 -67 0
-11 -30 -45 -46 0
-9 -30 -46 -52 0
-5 -11 -45 -46 -75 0
-2 -11 -45 -46 0
-2 -36 -46 0
-5 -36 -46 -75 0
-4 -36 -46 -75 0
-5 -46 -62 -75 0
-5 -46 -75 -88 0
-5 -59 -75 0
-5 -46 -75 -85 0
-5 -66 -75 0
-5 -72 -75 0
-5 -75 -87 0
-5 -73 -75 0
-5 -65 -75 0
-5 -43 -75 0
-5 -58 -75 0
-5 -75 -77 0
-5 -9 -21 -46 -75 0
-5 -9 -46 -52 -75 0
-2 -5 -80 0
-2 -9 -40 -46 0
-2 -9 -45 -46 0
-2 -46 -88 0
-2 -46 -85 0
-2 -16 -46 -52 0
-2 -9 -46 -52 0
-7 -9 -46 -52 0
-7 -24 -46 -62 0
-7 -24 -46 -88 0
-7 -24 -46 -85 0
-7 -24 -46 -67 0
-7 -24 -34 -46 0
-7 -24 -46 -66 0
-7 -24 -46 -65 0
-7 -22 -46 -65 0
-7 -22 -46 -54 0
-7 -22 -46 -62 0
-7 -22 -46 -88 0
-7 -22 -46 -85 0
-7 -22 -46 -67 0
-7 -22 -46 -66 0
-7 -16 -22 -46 0
-11 -23 -30 -46 0
-9 -29 -30 -46 0
-9 -21 -30 -46 0
-9 -22 -30 -46 0
-1 -17 -30 -46 0
-16 -23 -30 -46 0
-9 -23 -30 -46 0
-30 -47 -83 0
-30 -34 -47 0
-16 -40 -46 -47 0
-11 -40 -46 -47 0
-9 -40 -46 -47 0
-16 -28 -46 -47 0
-1 -16 -46 -47 0
-11 -28 -30 -46 0
-1 -11 -30 -46 0
-9 -28 -30 -46 0
-1 -9 -46 -47 0
-2 -4 -79 0
-2 -4 -78 0
-4 -43 -63 0
-5 -63 -78 0
-5 -63 -77 0
-4 -63 -77 0
-4 -63 -78 0
-4 -63 -79 0
-46 -59 -63 0
-5 -63 -84 0
-2 -63 -84 0
-4 -59 -63 0
-44 -49 -63 0
-2 -44 -63 0
-49 -63 -73 0
-5 -63 -73 0
-4 -63 -73 0
-4 -63 -67 0
-2 -42 -63 0
-5 -59 -63 0
-5 -54 -63 0
-5 -44 -63 0
-5 -56 -63 0
-2 -35 -78 0
-2 -35 -79 0
-2 -35 -80 0
-2 -43 -57 0
-2 -56 -57 0
-2 -43 -73 0
-2 -63 -73 0
-2 -35 -58 0
-2 -35 -63 0
-42 -47 -56 0
-47 -56 -87 0
-47 -56 -73 0
-47 -56 -84 0
-2 -42 -56 0
-2 -56 -84 0
-2 -56 -87 0
-2 -56 -73 0
-2 -35 -56 0
-2 -44 -56 0
-2 -56 -70 0
-47 -56 -72 0
-47 -56 -86 0
-47 -56 -61 0
-47 -56 -71 0
-5 -47 -56 0
-4 -47 -56 0
-46 -47 -66 0
-46 -47 -67 0
-1 -11 -46 -63 0
-11 -28 -46 -63 0
-9 -28 -46 -63 0
-6 -23 -46 -63 0
-6 -29 -46 -63 0
-6 -21 -46 -63 0
-6 -28 -46 -63 0
-17 -45 -46 -47 0
-12 -29 -46 -63 0
-12 -23 -46 -63 0
-9 -23 -46 -63 0
-17 -23 -46 -63 0
-17 -24 -46 -47 0
-17 -22 -46 -47 0
-18 -29 -46 -47 0
-18 -23 -46 -63 0
-16 -45 -46 -47 0
-9 -45 -46 -47 0
-6 -19 -28 -45 0
-6 -19 -29 -45 0
-6 -19 -45 -60 0
-7 -23 -47 -60 0
-7 -19 -47 -60 0
-7 -40 -47 -60 0
-7 -47 -52 -60 0
-7 -22 -47 -60 0
-7 -28 -47 -60 0
-7 -21 -47 -60 0
-12 -19 -47 -60 0
-6 -19 -47 -60 0
-11 -23 -47 -60 0
-12 -23 -34 -47 0
-17 -23 -34 -47 0
-12 -29 -34 -47 0
-12 -28 -34 -47 0
-12 -21 -34 -47 0
-9 -28 -34 -47 0
-11 -28 -47 -60 0
-12 -28 -46 -47 0
-12 -21 -46 -47 0
-12 -23 -46 -47 0
-17 -23 -46 -47 0
-18 -23 -46 -47 0
-9 -28 -46 -47 0
-7 -21 -47 -83 0
-6 -19 -34 -47 0
-7 -28 -34 -47 0
-2 -5 -43 0
-5 -63 -80 0
-5 -58 -63 0
-42 -46 -63 0
-46 -63 -70 0
-35 -46 -63 0
-46 -63 -72 0
-46 -63 -73 0
-6 -44 -45 -63 0
-6 -34 -45 -63 0
-6 -45 -63 -70 0
-6 -45 -63 -86 0
-6 -35 -45 -63 0
-6 -45 -59 -63 0
-6 -45 -63 -83 0
-6 -45 -62 -63 0
-2 -57 -67 0
-49 -63 -67 0
-6 -36 -45 -63 0
-6 -45 -54 -63 0
-6 -23 -45 -63 0
-6 -28 -45 -63 0
-6 -45 -63 -88 0
-6 -29 -45 -63 0
-6 -21 -45 -63 0
-6 -45 -63 -85 0
-6 -45 -63 -67 0
-6 -45 -63 -66 0
-6 -45 -63 -65 0
-6 -16 -45 -63 0
-6 -11 -45 -63 0
-6 -9 -45 -63 0
-6 -42 -45 -63 0
-6 -45 -63 -84 0
-6 -45 -63 -72 0
-6 -45 -63 -87 0
-6 -45 -63 -73 0
-6 -45 -57 -63 0
-46 -57 -63 0
-34 -49 -63 0
-49 -63 -70 0
-49 -63 -86 0
-35 -49 -63 0
-49 -63 -83 0
-42 -49 -63 0
-49 -63 -84 0
-49 -63 -72 0
-49 -63 -87 0
-49 -57 -63 0
-2 -57 -63 0
-6 -19 -36 -45 0
-2 -6 -36 -45 0
-2 -6 -45 -62 0
-2 -6 -23 -45 0
-2 -6 -45 -88 0
-2 -6 -29 -45 0
-2 -6 -45 -85 0
-2 -6 -45 -66 0
-2 -6 -45 -65 0
-2 -6 -16 -45 0
-2 -6 -11 -45 0
-2 -6 -9 -45 0
-2 -61 -78 0
-2 -6 -21 -46 0
-2 -6 -28 -45 0
-2 -58 -84 0
-2 -61 -79 0
-2 -42 -77 0
-2 -61 -80 0
-2 -17 -45 -46 0
-2 -6 -28 -46 0
-2 -6 -23 -46 0
-2 -6 -29 -46 0
-2 -46 -65 0
-2 -46 -66 0
-2 -59 -75 0
-2 -75 -84 0
-2 -71 -75 0
-2 -71 -78 0
-2 -71 -79 0
-2 -72 -77 0
-2 -73 -77 0
-2 -57 -77 0
-2 -71 -80 0
-2 -77 -87 0
-2 -78 -84 0
-2 -43 -84 0
-2 -79 -84 0
-2 -77 -84 0
-2 -80 -87 0
-2 -70 -80 0
-2 -44 -58 0
-2 -4 -58 0
-2 -4 -43 0
-2 -4 -80 0
-2 -42 -80 0
-2 -80 -84 0
-2 -72 -79 0
-2 -58 -70 0
-2 -42 -78 0
-2 -73 -78 0
-2 -57 -78 0
-2 -57 -58 0
-2 -58 -73 0
-2 -58 -72 0
-2 -43 -61 0
-2 -42 -58 0
-2 -42 -43 0
-2 -43 -44 0
-2 -43 -70 0
-2 -43 -72 0
-2 -35 -43 0
-2 -43 -71 0
-2 -58 -71 0
-2 -61 -77 0
-2 -44 -77 0
-2 -71 -77 0
-2 -59 -63 0
-2 -41 -59 0
-2 -41 -44 0
-2 -41 -61 0
-2 -41 -70 0
-2 -35 -41 0
-2 -4 -41 0
-2 -5 -66 0
-2 -41 -42 0
-2 -41 -72 0
-41 -47 -87 0
-2 -41 -87 0
-2 -41 -73 0
-41 -47 -57 0
-2 -41 -57 0
-41 -47 -49 0
-5 -47 -66 0
-41 -42 -47 0
-41 -47 -84 0
-41 -47 -73 0
-41 -47 -72 0
-47 -67 -87 0
-47 -66 -72 0
-42 -47 -66 0
-47 -66 -84 0
-47 -66 -87 0
-47 -66 -73 0
-47 -57 -66 0
-47 -49 -66 0
-36 -47 -83 0
-47 -68 -83 0
-6 -24 -47 -83 0
-12 -24 -47 -83 0
-47 -62 -83 0
-47 -83 -88 0
-47 -83 -85 0
-47 -67 -83 0
-47 -66 -83 0
-2 -66 -87 0
-2 -44 -67 0
-2 -44 -66 0
-2 -66 -70 0
-2 -51 -66 0
-2 -59 -66 0
-2 -61 -66 0
-2 -66 -71 0
-2 -4 -65 0
-2 -65 -70 0
-47 -61 -65 0
-47 -65 -71 0
-2 -65 -71 0
-41 -47 -61 0
-41 -47 -71 0
-34 -47 -62 0
-34 -47 -88 0
-34 -47 -85 0
-11 -34 -40 -47 0
-7 -34 -40 -47 0
-10 -34 -40 -47 0
-16 -45 -47 -60 0
-10 -45 -47 -60 0
-12 -45 -47 -60 0
-30 -47 -60 0
-39 -47 -60 0
-36 -47 -60 0
-47 -60 -68 0
-47 -60 -62 0
-47 -60 -88 0
-47 -60 -85 0
-47 -60 -65 0
-9 -40 -47 -83 0
-10 -40 -47 -83 0
-11 -40 -47 -83 0
-12 -40 -47 -83 0
-16 -40 -47 -83 0
-17 -40 -47 -83 0
-7 -40 -47 -86 0
-7 -47 -52 -83 0
-47 -65 -83 0
-30 -46 -83 0
-7 -46 -52 -83 0
-9 -47 -52 -60 0
-16 -47 -52 -60 0
-10 -40 -47 -60 0
-11 -40 -47 -60 0
-12 -40 -47 -60 0
-12 -24 -47 -86 0
-11 -24 -47 -60 0
-10 -24 -47 -60 0
-10 -21 -47 -83 0
-10 -28 -47 -60 0
-18 -28 -34 -47 0
-18 -21 -47 -60 0
-18 -28 -47 -60 0
-18 -19 -47 -60 0
-11 -22 -34 -47 0
-10 -22 -34 -47 0
-1 -17 -34 -47 0
-1 -17 -47 -60 0
-1 -9 -47 -60 0
-1 -16 -47 -60 0
-1 -10 -47 -60 0
-1 -12 -47 -60 0
-1 -7 -47 -60 0
-9 -24 -47 -60 0
-7 -24 -47 -60 0
-18 -24 -34 -47 0
-18 -24 -47 -60 0
-17 -24 -47 -60 0
-16 -22 -47 -60 0
-16 -19 -47 -60 0
-16 -21 -47 -60 0
-11 -21 -47 -60 0
-10 -21 -47 -60 0
-10 -29 -47 -60 0
-9 -21 -47 -60 0
-17 -29 -47 -60 0
-16 -29 -47 -86 0
-9 -29 -47 -60 0
-16 -23 -34 -47 0
-16 -23 -47 -60 0
-10 -23 -47 -60 0
-17 -21 -47 -60 0
-11 -45 -47 -60 0
-17 -19 -47 -60 0
-11 -22 -47 -60 0
-10 -22 -47 -60 0
-17 -22 -47 -60 0
-9 -22 -34 -47 0
-9 -22 -47 -60 0
-18 -22 -47 -60 0
-16 -34 -40 -47 0
-16 -40 -47 -60 0
-17 -40 -47 -60 0
-11 -19 -47 -60 0
-10 -19 -47 -60 0
-12 -34 -47 -52 0
-12 -47 -52 -60 0
-12 -45 -47 -86 0
-12 -47 -52 -86 0
-16 -47 -52 -86 0
-17 -47 -52 -86 0
-7 -47 -52 -86 0
-1 -17 -47 -86 0
-1 -10 -47 -86 0
-10 -24 -47 -86 0
-11 -22 -47 -86 0
-16 -19 -47 -86 0
-11 -19 -47 -86 0
-10 -19 -47 -86 0
-7 -19 -47 -86 0
-18 -22 -34 -47 0
-18 -22 -47 -86 0
-18 -24 -47 -86 0
-18 -21 -47 -86 0
-18 -19 -47 -86 0
-17 -19 -47 -86 0
-17 -24 -47 -86 0
-17 -29 -47 -86 0
-6 -22 -47 -86 0
-17 -28 -47 -86 0
-17 -21 -47 -86 0
-16 -21 -47 -86 0
-16 -23 -47 -86 0
-10 -23 -47 -86 0
-10 -28 -47 -86 0
-10 -29 -47 -86 0
-11 -21 -47 -86 0
-10 -21 -47 -86 0
-11 -29 -47 -86 0
-9 -29 -34 -47 0
-9 -29 -47 -86 0
-9 -21 -47 -86 0
-11 -45 -47 -86 0
-11 -24 -47 -86 0
-9 -24 -47 -86 0
-1 -7 -47 -86 0
-1 -9 -47 -86 0
-16 -22 -47 -86 0
-16 -40 -47 -86 0
-1 -12 -47 -86 0
-1 -16 -34 -47 0
-1 -16 -47 -86 0
-18 -28 -47 -86 0
-7 -22 -47 -86 0
-10 -22 -47 -86 0
-9 -22 -47 -86 0
-17 -22 -47 -86 0
-7 -24 -47 -86 0
-10 -40 -47 -86 0
-12 -40 -47 -86 0
-17 -40 -47 -86 0
-1 -12 -34 -47 0
-5 -75 -80 0
-2 -44 -78 0
-2 -70 -78 0
-2 -78 -87 0
-2 -70 -79 0
-2 -44 -79 0
-2 -42 -79 0
-2 -73 -79 0
-2 -57 -79 0
-2 -73 -80 0
-2 -72 -80 0
-2 -57 -80 0
-2 -58 -61 0
-2 -35 -77 0
-51 -63 -70 0
-51 -54 -63 0
-4 -54 -63 0
-51 -63 -86 0
-5 -63 -86 0
-5 -63 -83 0
-5 -63 -70 0
-5 -35 -63 0
-5 -63 -66 0
-5 -41 -47 0
-5 -63 -65 0
-5 -41 -63 0
-4 -63 -84 0
-4 -44 -63 0
-4 -63 -86 0
-51 -63 -83 0
-4 -63 -83 0
-5 -63 -72 0
-5 -42 -63 0
-5 -63 -87 0
-51 -63 -72 0
-51 -63 -87 0
-12 -34 -45 -47 0
-12 -24 -34 -47 0
-12 -22 -34 -47 0
-12 -19 -34 -47 0
-10 -19 -34 -47 0
-17 -19 -34 -47 0
-11 -19 -47 -83 0
-16 -19 -47 -83 0
-9 -19 -47 -83 0
-7 -19 -47 -83 0
-18 -19 -47 -83 0
-18 -19 -46 -83 0
-6 -19 -28 -46 0
-6 -19 -46 -85 0
-6 -19 -46 -67 0
-6 -19 -34 -46 0
-30 -34 -46 0
-16 -19 -34 -47 0
-11 -19 -34 -47 0
-9 -19 -34 -47 0
-7 -19 -34 -47 0
-18 -19 -34 -47 0
-9 -23 -34 -47 0
-11 -23 -34 -47 0
-7 -29 -34 -47 0
-7 -23 -34 -47 0
-7 -21 -34 -47 0
-7 -34 -47 -52 0
-1 -7 -34 -47 0
-1 -11 -34 -47 0
-7 -22 -34 -47 0
-11 -28 -34 -47 0
-11 -29 -34 -47 0
-11 -21 -34 -47 0
-34 -41 -47 0
-34 -47 -55 0
-11 -24 -34 -47 0
-34 -55 -60 0
-34 -38 -55 0
-31 -38 -55 0
-38 -53 -60 0
-34 -38 -53 0
-31 -38 -53 0
-38 -53 -83 0
-6 -30 -38 -45 0
-6 -19 -38 -45 0
-6 -7 -38 -45 0
-6 -19 -38 -46 0
-30 -38 -46 0
-38 -46 -53 0
-6 -38 -45 -53 0
-7 -38 -45 -46 0
-7 -38 -46 -52 0
-1 -7 -38 -46 0
-7 -22 -34 -46 0
-7 -40 -46 -60 0
-7 -38 -40 -46 0
-7 -19 -38 -46 0
-10 -19 -38 -46 0
-12 -19 -34 -46 0
-12 -19 -38 -46 0
-7 -24 -38 -46 0
-7 -22 -38 -46 0
-18 -19 -38 -46 0
-53 -55 -60 0
-6 -30 -45 -62 0
-6 -30 -34 -45 0
-6 -30 -45 -86 0
-6 -19 -45 -86 0
-6 -7 -45 -62 0
-6 -7 -36 -45 0
-6 -7 -23 -45 0
-6 -7 -45 -88 0
-6 -7 -45 -85 0
-6 -7 -45 -67 0
-6 -7 -45 -66 0
-6 -7 -45 -65 0
-6 -7 -16 -45 0
-6 -7 -11 -45 0
-6 -7 -9 -45 0
-6 -19 -34 -45 0
-6 -19 -45 -83 0
-6 -23 -30 -46 0
-6 -19 -23 -46 0
-6 -19 -21 -46 0
-6 -29 -30 -46 0
-6 -28 -30 -45 0
-6 -21 -30 -46 0
-6 -9 -19 -45 0
-6 -30 -45 -66 0
-6 -19 -23 -45 0
-6 -19 -45 -62 0
-6 -19 -45 -88 0
-6 -19 -21 -45 0
-6 -19 -45 -85 0
-6 -19 -45 -67 0
-6 -45 -47 -67 0
-47 -67 -72 0
-35 -47 -67 0
-41 -47 -51 0
-47 -51 -67 0
-47 -57 -65 0
-47 -65 -70 0
-35 -47 -65 0
-47 -59 -65 0
-47 -51 -65 0
-42 -47 -65 0
-47 -65 -84 0
-47 -65 -72 0
-47 -65 -87 0
-47 -65 -73 0
-47 -49 -65 0
-41 -47 -70 0
-35 -41 -47 0
-41 -47 -59 0
-6 -29 -30 -45 0
-6 -45 -47 -88 0
-6 -36 -45 -47 0
-6 -45 -47 -62 0
-6 -45 -47 -85 0
-6 -9 -45 -47 0
-6 -30 -45 -83 0
-7 -19 -46 -60 0
-10 -19 -36 -46 0
-10 -19 -46 -62 0
-10 -19 -46 -88 0
-10 -19 -46 -85 0
-10 -19 -46 -67 0
-7 -19 -46 -67 0
-1 -7 -46 -54 0
-1 -7 -36 -46 0
-1 -7 -46 -62 0
-1 -7 -46 -88 0
-1 -7 -46 -85 0
-1 -7 -46 -67 0
-7 -46 -52 -67 0
-7 -40 -46 -85 0
-7 -40 -46 -67 0
-12 -19 -46 -83 0
-12 -19 -28 -46 0
-12 -19 -21 -46 0
-12 -19 -46 -85 0
-12 -19 -46 -67 0
-18 -19 -46 -67 0
-6 -30 -45 -60 0
-6 -23 -30 -45 0
-6 -30 -45 -88 0
-6 -21 -30 -45 0
-6 -30 -45 -85 0
-6 -30 -45 -67 0
-6 -19 -45 -65 0
-6 -19 -45 -66 0
-6 -16 -19 -45 0
-6 -11 -19 -45 0
-6 -17 -19 -45 0
-9 -30 -45 -46 0
-17 -30 -45 -46 0
-6 -9 -30 -45 0
-6 -30 -45 -65 0
-6 -45 -47 -65 0
-6 -16 -30 -45 0
-6 -11 -30 -45 0
-6 -17 -30 -45 0
-6 -45 -47 -66 0
-4 -6 -23 -45 -75 0
-5 -6 -28 -45 -75 0
-5 -6 -29 -46 -75 0
-5 -6 -21 -46 -75 0
-5 -6 -21 -45 -75 0
-2 -6 -21 -45 0
-2 -6 -17 -45 0
-6 -17 -45 -63 0
-5 -6 -23 -45 -75 0
-6 -7 -23 -46 -47 0
-5 -6 -23 -46 -75 0
-12 -23 -47 -83 0
-6 -22 -47 -83 0
-16 -23 -47 -83 0
-18 -23 -47 -60 0
-12 -23 -47 -60 0
-17 -23 -47 -60 0
-7 -23 -47 -83 0
-11 -23 -47 -83 0
-10 -23 -47 -83 0
-9 -23 -47 -83 0
-18 -23 -47 -83 0
-17 -23 -47 -83 0
-6 -19 -47 -83 0
-10 -23 -34 -47 0
-6 -24 -47 -60 0
-9 -23 -46 -47 0
-11 -23 -46 -47 0
-16 -28 -34 -47 0
-16 -21 -47 -83 0
-12 -28 -47 -83 0
-16 -28 -47 -83 0
-16 -29 -47 -83 0
-12 -29 -47 -60 0
-16 -29 -47 -60 0
-16 -28 -47 -60 0
-16 -34 -45 -47 0
-16 -45 -47 -83 0
-1 -16 -47 -83 0
-1 -11 -46 -47 0
-7 -28 -47 -83 0
-7 -40 -47 -83 0
-1 -7 -47 -83 0
-1 -10 -47 -83 0
-1 -11 -47 -83 0
-9 -45 -47 -83 0
-17 -45 -47 -83 0
-9 -47 -52 -83 0
-17 -47 -52 -83 0
-12 -47 -52 -83 0
-12 -45 -47 -83 0
-1 -9 -47 -83 0
-1 -12 -47 -83 0
-1 -17 -47 -83 0
-9 -21 -47 -83 0
-9 -29 -47 -83 0
-9 -28 -47 -83 0
-9 -24 -47 -83 0
-9 -22 -47 -83 0
-17 -21 -47 -83 0
-12 -29 -47 -83 0
-12 -21 -47 -83 0
-11 -21 -47 -83 0
-18 -28 -47 -83 0
-18 -29 -47 -83 0
-18 -21 -47 -83 0
-17 -29 -47 -83 0
-11 -29 -47 -83 0
-11 -28 -47 -83 0
-10 -29 -47 -83 0
-7 -29 -47 -83 0
-17 -28 -47 -83 0
-10 -28 -34 -47 0
-10 -28 -47 -83 0
-10 -45 -47 -83 0
-11 -24 -47 -83 0
-16 -24 -47 -83 0
-10 -24 -47 -83 0
-7 -24 -47 -83 0
-18 -24 -47 -83 0
-17 -24 -47 -83 0
-17 -22 -47 -83 0
-12 -22 -47 -83 0
-12 -19 -47 -83 0
-17 -19 -47 -83 0
-10 -19 -47 -83 0
-7 -22 -47 -83 0
-10 -47 -52 -83 0
-16 -22 -47 -83 0
-11 -22 -47 -83 0
-10 -22 -47 -83 0
-18 -22 -47 -83 0
-16 -47 -52 -83 0
-11 -47 -52 -83 0
-11 -45 -47 -83 0
-9 -21 -34 -47 0
-9 -28 -47 -60 0
-9 -19 -47 -60 0
-12 -21 -47 -60 0
-12 -28 -47 -60 0
-18 -29 -47 -60 0
-17 -34 -45 -47 0
-17 -45 -47 -60 0
-12 -22 -47 -60 0
-16 -24 -47 -60 0
-12 -24 -47 -60 0
-11 -47 -52 -60 0
-10 -34 -47 -52 0
-10 -47 -52 -60 0
-9 -40 -47 -60 0
-9 -34 -45 -47 0
-9 -34 -40 -47 0
-9 -34 -47 -52 0
-1 -9 -34 -47 0
-18 -29 -34 -47 0
-17 -24 -34 -47 0
-10 -34 -45 -47 0
-7 -24 -34 -47 0
-10 -24 -34 -47 0
-1 -10 -34 -47 0
-17 -28 -34 -47 0
-6 -22 -34 -47 0
-17 -22 -34 -47 0
-17 -34 -40 -47 0
-11 -34 -47 -52 0
-12 -29 -46 -47 0
-47 -65 -86 0
-41 -47 -86 0
-2 -5 -65 0
-2 -5 -41 0
-4 -41 -47 0
-5 -47 -65 0
-4 -47 -65 0
-4 -6 -21 -45 -75 0
-6 -7 -28 -46 -47 0
-6 -7 -29 -46 -47 0
-4 -6 -29 -46 -75 0
-7 -23 -45 -46 -83 0
-7 -24 -46 -83 0
-7 -34 -40 -46 0
-1 -7 -34 -46 0
-7 -28 -34 -45 -46 0
-7 -29 -34 -45 -46 0
-7 -21 -34 -45 -46 0
-7 -23 -34 -45 -46 0
-7 -19 -34 -46 0
-7 -34 -46 -52 0
-7 -19 -46 -54 0
-7 -19 -36 -46 0
-7 -19 -46 -62 0
-7 -19 -46 -88 0
-7 -19 -46 -85 0
-7 -19 -46 -66 0
-1 -7 -46 -83 0
-7 -19 -46 -65 0
-10 -19 -46 -83 0
-7 -16 -19 -28 -46 0
-7 -16 -19 -23 -46 0
-7 -16 -19 -21 -46 0
-7 -16 -19 -29 -46 0
-6 -19 -46 -83 0
-7 -19 -46 -83 0
-7 -11 -19 -23 -46 0
-1 -7 -9 -46 0
-1 -7 -17 -46 0
-1 -7 -11 -46 0
-1 -7 -16 -46 0
-1 -7 -46 -65 0
-1 -7 -46 -66 0
-7 -46 -52 -66 0
-7 -40 -46 -66 0
-7 -16 -40 -46 0
-7 -40 -46 -65 0
-7 -11 -40 -46 0
-7 -22 -46 -83 0
-7 -9 -22 -46 0
-7 -9 -24 -46 0
-7 -9 -40 -46 0
-7 -9 -19 -23 -46 0
-10 -19 -28 -46 0
-10 -19 -21 -46 0
-10 -19 -29 -46 0
-6 -28 -30 -46 0
-6 -19 -29 -46 0
-11 -28 -46 -47 0
-6 -7 -21 -46 -47 0
-4 -6 -28 -45 -75 0
-4 -16 -45 -46 -75 0
-4 -46 -62 -75 0
-2 -51 -56 0
-2 -51 -65 0
-1 -2 -16 -46 0
-1 -2 -11 -46 0
-1 -2 -9 -46 0
-1 -2 -17 -46 0
-2 -11 -40 -46 0
-2 -17 -40 -46 0
-2 -11 -46 -52 0
-2 -17 -46 -52 0
-2 -10 -23 -46 0
-2 -10 -28 -46 0
-2 -12 -29 -46 0
-2 -12 -21 -46 0
-2 -12 -23 -46 0
-2 -12 -28 -46 0
-2 -16 -29 -46 0
-2 -11 -29 -46 0
-2 -10 -29 -46 0
-10 -21 -46 -63 0
-18 -21 -46 -63 0
-18 -29 -46 -63 0
-18 -19 -28 -46 0
-18 -28 -46 -63 0
-2 -18 -23 -46 0
-2 -18 -29 -46 0
-2 -18 -21 -46 0
-2 -16 -28 -46 0
-18 -28 -30 -46 0
-2 -18 -28 -46 0
-18 -19 -23 -46 0
-18 -19 -36 -46 0
-18 -19 -46 -85 0
-18 -19 -34 -46 0
-18 -19 -46 -66 0
-18 -19 -46 -65 0
-16 -29 -30 -46 0
-12 -29 -30 -46 0
-11 -29 -30 -46 0
-10 -29 -30 -46 0
-18 -23 -30 -46 0
-18 -29 -30 -46 0
-18 -19 -29 -46 0
-11 -21 -30 -46 0
-12 -21 -30 -46 0
-16 -21 -30 -46 0
-10 -21 -30 -46 0
-18 -21 -30 -46 0
-18 -19 -21 -46 0
-44 -46 -63 0
-46 -63 -84 0
-36 -46 -63 0
-46 -54 -63 0
-34 -46 -63 0
-46 -62 -63 0
-46 -63 -67 0
-46 -63 -66 0
-46 -63 -65 0
-5 -12 -23 -46 -75 0
-5 -16 -23 -46 -75 0
-5 -11 -23 -46 -75 0
-5 -10 -23 -46 -75 0
-5 -9 -23 -46 -75 0
-5 -18 -23 -46 -75 0
-5 -17 -23 -46 -75 0
-2 -17 -24 -46 0
-2 -9 -24 -46 0
-7 -11 -24 -46 0
-7 -24 -46 -60 0
-7 -46 -52 -60 0
-7 -22 -46 -60 0
-2 -17 -23 -46 0
-17 -28 -30 -46 0
-2 -17 -29 -46 0
-2 -9 -29 -46 0
-2 -46 -67 0
-2 -35 -66 0
-2 -4 -67 0
-2 -42 -67 0
-2 -67 -84 0
-2 -67 -72 0
-2 -67 -73 0
-2 -61 -67 0
